c arquivo referente a modelagem de horario dos cursos
p cnf 32 148 
-1 -2 
-1 -3 
-1 -4 
-1 -5 
-2 -1 
-2 -3 
-2 -4 
-2 -5 
-3 -1 
-3 -2 
-3 -4 
-3 -5 
-4 -1 
-4 -2 
-4 -3 
-4 -5 
-5 -1 
-5 -2 
-5 -3 
-5 -4 
-6 -7 
-6 -8 
-6 -9 
-6 -10 
-7 -6 
-7 -8 
-7 -9 
-7 -10 
-8 -6 
-8 -7 
-8 -9 
-8 -10 
-9 -6 
-9 -7 
-9 -8 
-9 -10 
-10 -6 
-10 -7 
-10 -8 
-10 -9 
-11 -12 
-11 -13 
-11 -14 
-11 -15 
-12 -11 
-12 -13 
-12 -14 
-12 -15 
-13 -11 
-13 -12 
-13 -14 
-13 -15 
-14 -11 
-14 -12 
-14 -13 
-14 -15 
-15 -11 
-15 -12 
-15 -13 
-15 -14 
-16 -17 
-16 -18 
-16 -19 
-16 -20 
-17 -16 
-17 -18 
-17 -19 
-17 -20 
-18 -16 
-18 -17 
-18 -19 
-18 -20 
-19 -16 
-19 -17 
-19 -18 
-19 -20 
-20 -16 
-20 -17 
-20 -18 
-20 -19 
-1 -6 -21 
-2 -7 -21 
-3 -8 -21 
-4 -9 -21 
-5 -10 -21 
-1 -11 -22 
-2 -12 -22 
-3 -13 -22 
-4 -14 -22 
-5 -15 -22 
-1 -16 -23 
-2 -17 -23 
-3 -18 -23 
-4 -19 -23 
-5 -20 -23 
-6 -1 -24 
-7 -2 -24 
-8 -3 -24 
-9 -4 -24 
-10 -5 -24 
-6 -11 -26 
-7 -12 -26 
-8 -13 -26 
-9 -14 -26 
-10 -15 -26 
-6 -16 -27 
-7 -17 -27 
-8 -18 -27 
-9 -19 -27 
-10 -20 -27 
-11 -1 -28 
-12 -2 -28 
-13 -3 -28 
-14 -4 -28 
-15 -5 -28 
-11 -6 -29 
-12 -7 -29 
-13 -8 -29 
-14 -9 -29 
-15 -10 -29 
-11 -16 -31 
-12 -17 -31 
-13 -18 -31 
-14 -19 -31 
-15 -20 -31 
-16 -1 -32 
-17 -2 -32 
-18 -3 -32 
-19 -4 -32 
-20 -5 -32 
-16 -6 -33 
-17 -7 -33 
-18 -8 -33 
-19 -9 -33 
-20 -10 -33 
-16 -11 -34 
-17 -12 -34 
-18 -13 -34 
-19 -14 -34 
-20 -15 -34 
21
24
26
27
29
31
33
34
